
Log started (V11.0.0) Sun Apr 13 13:00:44 2008

Tried aggregator 1 time.
Reduced MIP has 140 rows, 4001 columns, and 8040 nonzeros.
Presolve time =    0.03 sec.
Clique table members: 100.
MIP emphasis: balance optimality and feasibility.
MIP search method: dynamic search.
Parallel mode: none, using 1 thread.
Root relaxation solution time =    0.09 sec.

        Nodes                                         Cuts/
   Node  Left     Objective  IInf  Best Integer     Best Node    ItCnt     Gap

*     0+    0                         4776.0000        7.5987      638   99.84%
*     0+    0                           18.0000        7.5987      638   57.79%
      0     0        8.0000    52       18.0000      Fract: 4      673   55.56%
*     0+    0                           14.0000        8.0000      673   42.86%
      0     0       12.0000     4       14.0000      Cuts: 17      683   14.29%
*     0+    0                           12.0000       12.0000      683    0.00%

Clique cuts applied:  9
Implied bound cuts applied:  1
Flow cuts applied:  7
Gomory fractional cuts applied:  1

Solution pool: 4 solutions saved.

MIP - Integer optimal solution:  Objective = 1.2000000000e+001
Solution time =    0.38 sec.  Iterations = 683  Nodes = 0


Incumbent solution
Variable Name           Solution Value
Cmax                         12.000000
X_1_14                        1.000000
X_2_1                         1.000000
X_3_19                        1.000000
X_4_13                        1.000000
X_5_17                        1.000000
X_6_13                        1.000000
X_7_9                         1.000000
X_8_14                        1.000000
X_9_7                         1.000000
X_10_28                       1.000000
X_11_11                       1.000000
X_12_25                       1.000000
X_13_16                       1.000000
X_14_10                       1.000000
X_15_38                       1.000000
X_16_17                       1.000000
X_17_14                       1.000000
X_18_33                       1.000000
X_19_38                       1.000000
X_20_7                        1.000000
X_21_36                       1.000000
X_22_2                        1.000000
X_23_7                        1.000000
X_24_35                       1.000000
X_25_5                        1.000000
X_26_28                       1.000000
X_27_34                       1.000000
X_28_22                       1.000000
X_29_32                       1.000000
X_30_34                       1.000000
X_31_2                        1.000000
X_32_37                       1.000000
X_33_20                       1.000000
X_34_2                        1.000000
X_35_30                       1.000000
X_36_8                        1.000000
X_37_22                       1.000000
X_38_15                       1.000000
X_39_19                       1.000000
X_40_32                       1.000000
X_41_12                       1.000000
X_42_1                        1.000000
X_43_8                        1.000000
X_44_24                       1.000000
X_45_32                       1.000000
X_46_12                       1.000000
X_47_4                        1.000000
X_48_29                       1.000000
X_49_32                       1.000000
X_50_14                       1.000000
X_51_18                       1.000000
X_52_23                       1.000000
X_53_6                        1.000000
X_54_37                       1.000000
X_55_19                       1.000000
X_56_27                       1.000000
X_57_33                       1.000000
X_58_8                        1.000000
X_59_10                       1.000000
X_60_36                       1.000000
X_61_6                        1.000000
X_62_25                       1.000000
X_63_18                       1.000000
X_64_3                        1.000000
X_65_3                        1.000000
X_66_25                       1.000000
X_67_40                       1.000000
X_68_2                        1.000000
X_69_16                       1.000000
X_70_14                       1.000000
X_71_26                       1.000000
X_72_36                       1.000000
X_73_40                       1.000000
X_74_14                       1.000000
X_75_19                       1.000000
X_76_11                       1.000000
X_77_31                       1.000000
X_78_21                       1.000000
X_79_21                       1.000000
X_80_33                       1.000000
X_81_26                       1.000000
X_82_12                       1.000000
X_83_6                        1.000000
X_84_1                        1.000000
X_85_25                       1.000000
X_86_28                       1.000000
X_87_15                       1.000000
X_88_23                       1.000000
X_89_40                       1.000000
X_90_33                       1.000000
X_91_37                       1.000000
X_92_16                       1.000000
X_93_39                       1.000000
X_94_27                       1.000000
X_95_21                       1.000000
X_96_4                        1.000000
X_97_39                       1.000000
X_98_24                       1.000000
X_99_34                       1.000000
X_100_6                       1.000000
All other variables in the range 1-4001 are 0.
